CMPL model generation - running

CMPL version: 1.11.0
Authors: Thomas Schleiff, Mike Steglich
Distributed under the GPLv3 

create model instance ...
write model instance ...
CMPL model generation - finished

Solver - running


Welcome to IBM(R) ILOG(R) CPLEX(R) Interactive Optimizer 12.7.1.0
  with Simplex, Mixed Integer & Barrier Optimizers
5725-A06 5725-A29 5724-Y48 5724-Y49 5724-Y54 5724-Y55 5655-Y21
Copyright IBM Corp. 1988, 2017.  All Rights Reserved.

Type 'help' for a list of available commands.
Type 'help' followed by a command name for more
information on commands.

CPLEX> Specified objective sense: MINIMIZE
Selected objective  name:  line[1]
Selected RHS        name:  RHS
Selected bound      name:  BOUND
Problem '/tmp/cmpl.T23673.mps' read.
Read time = 0.13 sec. (10.11 ticks)
CPLEX> CPXPARAM_Read_APIEncoding                        "UTF-8"
Tried aggregator 3 times.
MIP Presolve eliminated 24072 rows and 37711 columns.
MIP Presolve modified 425 coefficients.
Aggregator did 711 substitutions.
Reduced MIP has 3139 rows, 4033 columns, and 11937 nonzeros.
Reduced MIP has 3823 binaries, 0 generals, 0 SOSs, and 0 indicators.
Presolve time = 0.06 sec. (50.04 ticks)
Found incumbent of value 356.267191 after 0.10 sec. (73.83 ticks)
Probing fixed 8 vars, tightened 0 bounds.
Probing time = 0.01 sec. (5.19 ticks)
Tried aggregator 1 time.
MIP Presolve eliminated 0 rows and 8 columns.
MIP Presolve modified 33 coefficients.
Reduced MIP has 3139 rows, 4025 columns, and 11921 nonzeros.
Reduced MIP has 4025 binaries, 0 generals, 0 SOSs, and 0 indicators.
Presolve time = 0.01 sec. (10.07 ticks)
Probing time = 0.01 sec. (2.83 ticks)
Clique table members: 7286.
MIP emphasis: balance optimality and feasibility.
MIP search method: dynamic search.
Parallel mode: none, using 1 thread.
Root relaxation solution time = 0.00 sec. (5.49 ticks)

        Nodes                                         Cuts/
   Node  Left     Objective  IInf  Best Integer    Best Bound    ItCnt     Gap

*     0+    0                          356.2672      -44.2107           112.41%
      0     0       84.1565    18      356.2672       84.1565      101   76.38%
*     0+    0                          108.2769       84.1565            22.28%
*     0+    0                           84.5679       84.1565             0.49%
      0     0       84.5237     1       84.5679      Cuts: 22      110    0.05%
*     0+    0                           84.5466       84.5237             0.03%
*     0+    0                           84.5452       84.5237             0.03%
      0     0        cutoff             84.5452       84.5237      110    0.03%
Elapsed time = 0.18 sec. (133.96 ticks, tree = 0.01 MB, solutions = 5)

Clique cuts applied:  1
Cover cuts applied:  14
Gomory fractional cuts applied:  7

Root node processing (before b&c):
  Real time             =    0.19 sec. (136.36 ticks)
Sequential b&c:
  Real time             =    0.00 sec. (0.00 ticks)
                          ------------
Total (root+branch&cut) =    0.19 sec. (136.36 ticks)

Solution pool: 5 solutions saved.

MIP - Integer optimal solution:  Objective =  8.4545227000e+01
Solution time =    0.19 sec.  Iterations = 110  Nodes = 0
Deterministic time = 136.48 ticks  (725.92 ticks/sec)

CPLEX> Incumbent solution written to file '/tmp/cmpl.T23673.gsol'.
CPLEX> 
CMPL: Time used for model generation: 1 seconds
CMPL: Time used for solving the model: 1 seconds


Solution written to ASCII file: results/output_generated_conf_0.2/2016-02-01-5/fair-nonlinear.sol

Solver - finished
